p cnf 40 96
c weights 1.0 1.0 2.718281828459045 0.36787944117144233 2.718281828459045 0.36787944117144233 1.0 1.0 2.718281828459045 0.36787944117144233 2.718281828459045 0.36787944117144233 1.0 1.0 2.718281828459045 0.36787944117144233 2.718281828459045 0.36787944117144233 1.0 1.0 2.718281828459045 0.36787944117144233 1.0 1.0 2.718281828459045 0.36787944117144233 2.718281828459045 0.36787944117144233 1.0 1.0 2.718281828459045 0.36787944117144233 2.718281828459045 0.36787944117144233 1.0 1.0 2.718281828459045 0.36787944117144233 2.718281828459045 0.36787944117144233 1.0 1.0 2.718281828459045 0.36787944117144233 1.0 1.0 2.718281828459045 0.36787944117144233 2.718281828459045 0.36787944117144233 1.0 1.0 2.718281828459045 0.36787944117144233 2.718281828459045 0.36787944117144233 1.0 1.0 2.718281828459045 0.36787944117144233 2.718281828459045 0.36787944117144233 1.0 1.0 2.718281828459045 0.36787944117144233 1.0 1.0 2.718281828459045 0.36787944117144233 1.0 1.0 2.718281828459045 0.36787944117144233 1.0 1.0 2.718281828459045 0.36787944117144233 1.0 1.0
2 1 4 0
2 -1 -4 0
-2 1 -4 0
-2 -1 4 0
3 1 12 0
3 -1 -12 0
-3 1 -12 0
-3 -1 12 0
5 4 7 0
5 -4 -7 0
-5 4 -7 0
-5 -4 7 0
6 4 15 0
6 -4 -15 0
-6 4 -15 0
-6 -4 15 0
8 7 10 0
8 -7 -10 0
-8 7 -10 0
-8 -7 10 0
9 7 18 0
9 -7 -18 0
-9 7 -18 0
-9 -7 18 0
11 10 21 0
11 -10 -21 0
-11 10 -21 0
-11 -10 21 0
13 12 15 0
13 -12 -15 0
-13 12 -15 0
-13 -12 15 0
14 12 23 0
14 -12 -23 0
-14 12 -23 0
-14 -12 23 0
16 15 18 0
16 -15 -18 0
-16 15 -18 0
-16 -15 18 0
17 15 26 0
17 -15 -26 0
-17 15 -26 0
-17 -15 26 0
19 18 21 0
19 -18 -21 0
-19 18 -21 0
-19 -18 21 0
20 18 29 0
20 -18 -29 0
-20 18 -29 0
-20 -18 29 0
22 21 32 0
22 -21 -32 0
-22 21 -32 0
-22 -21 32 0
24 23 26 0
24 -23 -26 0
-24 23 -26 0
-24 -23 26 0
25 23 34 0
25 -23 -34 0
-25 23 -34 0
-25 -23 34 0
27 26 29 0
27 -26 -29 0
-27 26 -29 0
-27 -26 29 0
28 26 36 0
28 -26 -36 0
-28 26 -36 0
-28 -26 36 0
30 29 32 0
30 -29 -32 0
-30 29 -32 0
-30 -29 32 0
31 29 38 0
31 -29 -38 0
-31 29 -38 0
-31 -29 38 0
33 32 40 0
33 -32 -40 0
-33 32 -40 0
-33 -32 40 0
35 34 36 0
35 -34 -36 0
-35 34 -36 0
-35 -34 36 0
37 36 38 0
37 -36 -38 0
-37 36 -38 0
-37 -36 38 0
39 38 40 0
39 -38 -40 0
-39 38 -40 0
-39 -38 40 0
